language Essence 1.3

$ Generated using seed: 6162

letting n_boats be 80
letting n_periods be 20

letting capacity be function(
1 --> 27,
2 --> 42,
3 --> 37,
4 --> 30,
5 --> 47,
6 --> 60,
7 --> 61,
8 --> 2,
9 --> 37,
10 --> 53,
11 --> 25,
12 --> 29,
13 --> 51,
14 --> 34,
15 --> 34,
16 --> 65,
17 --> 56,
18 --> 34,
19 --> 17,
20 --> 46,
21 --> 5,
22 --> 46,
23 --> 50,
24 --> 47,
25 --> 75,
26 --> 76,
27 --> 16,
28 --> 39,
29 --> 50,
30 --> 26,
31 --> 79,
32 --> 28,
33 --> 77,
34 --> 58,
35 --> 58,
36 --> 53,
37 --> 76,
38 --> 12,
39 --> 35,
40 --> 61,
41 --> 59,
42 --> 10,
43 --> 51,
44 --> 27,
45 --> 8,
46 --> 9,
47 --> 1,
48 --> 54,
49 --> 27,
50 --> 17,
51 --> 4,
52 --> 6,
53 --> 47,
54 --> 71,
55 --> 21,
56 --> 53,
57 --> 78,
58 --> 14,
59 --> 20,
60 --> 19,
61 --> 80,
62 --> 1,
63 --> 54,
64 --> 55,
65 --> 68,
66 --> 52,
67 --> 21,
68 --> 58,
69 --> 27,
70 --> 68,
71 --> 81,
72 --> 58,
73 --> 11,
74 --> 43,
75 --> 5,
76 --> 79,
77 --> 5,
78 --> 9,
79 --> 80,
80 --> 48
)

letting crew be function(
1 --> 23,
2 --> 11,
3 --> 12,
4 --> 5,
5 --> 1,
6 --> 56,
7 --> 45,
8 --> 1,
9 --> 18,
10 --> 42,
11 --> 14,
12 --> 19,
13 --> 13,
14 --> 5,
15 --> 27,
16 --> 8,
17 --> 37,
18 --> 30,
19 --> 5,
20 --> 3,
21 --> 1,
22 --> 33,
23 --> 12,
24 --> 11,
25 --> 74,
26 --> 31,
27 --> 11,
28 --> 11,
29 --> 41,
30 --> 4,
31 --> 44,
32 --> 16,
33 --> 2,
34 --> 9,
35 --> 41,
36 --> 45,
37 --> 54,
38 --> 10,
39 --> 12,
40 --> 39,
41 --> 8,
42 --> 8,
43 --> 2,
44 --> 3,
45 --> 4,
46 --> 5,
47 --> 1,
48 --> 41,
49 --> 13,
50 --> 9,
51 --> 4,
52 --> 5,
53 --> 20,
54 --> 53,
55 --> 15,
56 --> 13,
57 --> 65,
58 --> 2,
59 --> 14,
60 --> 4,
61 --> 59,
62 --> 1,
63 --> 13,
64 --> 54,
65 --> 49,
66 --> 26,
67 --> 11,
68 --> 21,
69 --> 6,
70 --> 7,
71 --> 78,
72 --> 3,
73 --> 10,
74 --> 2,
75 --> 3,
76 --> 2,
77 --> 4,
78 --> 6,
79 --> 4,
80 --> 13
)

